
Gurobi 11.0.0 (win64) logging started Sat Jun 15 09:48:37 2024

Set parameter LogFile to value "./GurobiLog/stage_3_iter_7.log"
Gurobi Optimizer version 11.0.0 build v11.0.0rc2 (win64 - Windows 10.0 (18363.2))

CPU model: Intel(R) Core(TM) i7-8700 CPU @ 3.20GHz, instruction set [SSE2|AVX|AVX2]
Thread count: 6 physical cores, 12 logical processors, using up to 1 threads

Optimize a model with 1065 rows, 10910 columns and 18470 nonzeros
Coefficient statistics:
  Matrix range     [1e+00, 4e+01]
  Objective range  [2e+00, 2e+05]
  Bounds range     [3e+00, 7e+03]
  RHS range        [1e+00, 3e+04]
LP warm-start: use basis
Iteration    Objective       Primal Inf.    Dual Inf.      Time
       0   -2.5909314e+04   6.216545e+03   0.000000e+00      0s
     269    9.3247483e+03   0.000000e+00   0.000000e+00      0s

Solved in 269 iterations and 0.01 seconds (0.01 work units)
Optimal objective  9.324748333e+03

Gurobi 11.0.0 (win64) logging started Sat Jun 15 10:47:11 2024

Set parameter LogFile to value "./GurobiLog/stage_3_iter_7.log"
Gurobi Optimizer version 11.0.0 build v11.0.0rc2 (win64 - Windows 10.0 (18363.2))

CPU model: Intel(R) Core(TM) i7-8700 CPU @ 3.20GHz, instruction set [SSE2|AVX|AVX2]
Thread count: 6 physical cores, 12 logical processors, using up to 1 threads

Optimize a model with 1065 rows, 10910 columns and 18470 nonzeros
Coefficient statistics:
  Matrix range     [1e+00, 4e+01]
  Objective range  [2e+00, 2e+05]
  Bounds range     [3e-01, 1e+04]
  RHS range        [1e+00, 3e+04]
LP warm-start: use basis
Iteration    Objective       Primal Inf.    Dual Inf.      Time
       0    4.4444586e+03   2.183905e+03   0.000000e+00      0s
     163    1.5278677e+04   0.000000e+00   0.000000e+00      0s

Solved in 163 iterations and 0.01 seconds (0.00 work units)
Optimal objective  1.527867667e+04

Gurobi 11.0.0 (win64) logging started Sat Jun 15 11:06:21 2024

Set parameter LogFile to value "./GurobiLog/stage_3_iter_7.log"
Gurobi Optimizer version 11.0.0 build v11.0.0rc2 (win64 - Windows 10.0 (18363.2))

CPU model: Intel(R) Core(TM) i7-8700 CPU @ 3.20GHz, instruction set [SSE2|AVX|AVX2]
Thread count: 6 physical cores, 12 logical processors, using up to 1 threads

Optimize a model with 1065 rows, 10910 columns and 18470 nonzeros
Coefficient statistics:
  Matrix range     [1e+00, 4e+01]
  Objective range  [2e+00, 2e+05]
  Bounds range     [2e+00, 1e+04]
  RHS range        [1e+00, 3e+04]
LP warm-start: use basis
Iteration    Objective       Primal Inf.    Dual Inf.      Time
       0   -1.4285498e+04   6.140224e+03   0.000000e+00      0s
     324    1.6022373e+04   0.000000e+00   0.000000e+00      0s

Solved in 324 iterations and 0.01 seconds (0.01 work units)
Optimal objective  1.602237308e+04
